SMILES: CCCCCC(O)CC(=O)OC
NUM PEAKS: 63
31.0        94.91000366210938
33.0        70.94000244140625
39.0        114.9000015258789
40.0        18.979999542236328
41.0        316.7099914550781
42.0        162.85000610351562
43.0        817.260009765625
44.0        180.83999633789062
45.0        51.95000076293945
51.0        4.0
52.0        0.5
53.0        29.969999313354492
54.0        26.979999542236328
55.0        317.7099914550781
56.0        89.91999816894531
57.0        108.9000015258789
58.0        46.959999084472656
59.0        184.8300018310547
60.0        7.989999771118164
61.0        310.7200012207031
62.0        5.989999771118164
65.0        0.5
67.0        35.970001220703125
68.0        16.979999542236328
69.0        22.979999542236328
70.0        10.989999771118164
71.0        586.469970703125
72.0        37.970001220703125
73.0        10.989999771118164
74.0        514.5399780273438
75.0        59.95000076293945
76.0        4.0
77.0        0.5
79.0        4.0
80.0        0.5
81.0        39.959999084472656
82.0        64.94000244140625
83.0        146.8699951171875
84.0        9.989999771118164
85.0        39.959999084472656
86.0        6.989999771118164
87.0        39.959999084472656
88.0        7.989999771118164
95.0        7.989999771118164
96.0        45.959999084472656
97.0        22.979999542236328
99.0        47.959999084472656
100.0       14.989999771118164
101.0       62.939998626708984
102.0       19.979999542236328
103.0       999.0
104.0       51.95000076293945
105.0       6.989999771118164
113.0       25.979999542236328
114.0       17.979999542236328
117.0       4.0
118.0       1.0
124.0       27.969999313354492
125.0       60.939998626708984
126.0       3.0
127.0       6.989999771118164
141.0       2.0
143.0       1.0

