SMILES: CCCCCC(O)CC(=O)OC
NUM PEAKS: 63
31.0        94.91000366210938
33.0        70.94000244140625
39.0        114.9000015258789
40.0        18.979999542236328
41.0        316.7099914550781
42.0        162.85000610351562
43.0        817.260009765625
44.0        180.83999633789062
45.0        51.95000076293945
51.0        4.0
52.0        0.5
53.0        29.969999313354492
54.0        26.979999542236328
55.0        317.7099914550781
56.0        89.91999816894531
57.0        108.9000015258789
58.0        46.959999084472656
59.0        184.8300018310547
60.0        7.989999771118164
61.0        310.7200012207031
62.0        5.989999771118164
65.0        0.5
67.0        35.970001220703125
68.0        16.979999542236328
69.0        22.979999542236328
70.0        10.989999771118164
71.0        586.469970703125
72.0        37.970001220703125
73.0        10.989999771118164
74.0        514.5399780273438
75.0        59.95000076293945
76.0        4.0
77.0        0.5
79.0        4.0
80.0        0.5
81.0        39.959999084472656
82.0        64.94000244140625
83.0        146.8699951171875
84.0        9.989999771118164
85.0        39.959999084472656
86.0        6.989999771118164
87.0        39.959999084472656
88.0        7.989999771118164
95.0        7.989999771118164
96.0        45.959999084472656
97.0        22.979999542236328
99.0        47.959999084472656
100.0       14.989999771118164
101.0       62.939998626708984
102.0       19.979999542236328
103.0       999.0
104.0       51.95000076293945
105.0       6.989999771118164
113.0       25.979999542236328
114.0       17.979999542236328
117.0       4.0
118.0       1.0
124.0       27.969999313354492
125.0       60.939998626708984
126.0       3.0
127.0       6.989999771118164
141.0       2.0
143.0       1.0

SMILES: NCC(O)c1cc(O)c(O)cc1F
NUM PEAKS: 102
48.0        16.979999542236328
49.0        38.959999084472656
50.0        91.91999816894531
51.0        243.77999877929688
52.0        83.91999816894531
53.0        128.8800048828125
54.0        22.979999542236328
55.0        96.91000366210938
56.0        96.91000366210938
57.0        197.82000732421875
58.0        49.95000076293945
59.0        28.969999313354492
60.0        28.969999313354492
61.0        29.969999313354492
62.0        47.959999084472656
63.0        109.9000015258789
64.0        36.970001220703125
65.0        47.959999084472656
66.0        24.979999542236328
67.0        79.93000030517578
68.0        28.969999313354492
69.0        104.91000366210938
70.0        64.94000244140625
71.0        62.939998626708984
72.0        31.969999313354492
73.0        57.95000076293945
74.0        25.979999542236328
75.0        60.939998626708984
76.0        19.979999542236328
77.0        75.93000030517578
78.0        136.8800048828125
79.0        49.95000076293945
80.0        39.959999084472656
81.0        116.88999938964844
82.0        79.93000030517578
83.0        221.8000030517578
84.0        35.970001220703125
85.0        6.989999771118164
86.0        7.989999771118164
87.0        2.0
90.0        6.989999771118164
91.0        21.979999542236328
92.0        9.989999771118164
93.0        21.979999542236328
94.0        24.979999542236328
95.0        51.95000076293945
96.0        52.95000076293945
97.0        36.970001220703125
98.0        17.979999542236328
99.0        69.94000244140625
100.0       20.979999542236328
101.0       3.0
103.0       9.989999771118164
104.0       9.989999771118164
105.0       15.989999771118164
106.0       59.95000076293945
107.0       24.979999542236328
108.0       16.979999542236328
109.0       42.959999084472656
110.0       22.979999542236328
111.0       466.5799865722656
112.0       45.959999084472656
113.0       9.989999771118164
115.0       10.989999771118164
120.0       3.0
121.0       9.989999771118164
122.0       28.969999313354492
123.0       25.979999542236328
124.0       54.95000076293945
125.0       23.979999542236328
126.0       2.0
127.0       39.959999084472656
128.0       57.95000076293945
129.0       44.959999084472656
132.0       9.989999771118164
133.0       6.989999771118164
136.0       3.0
137.0       24.979999542236328
138.0       14.989999771118164
139.0       22.979999542236328
140.0       37.970001220703125
141.0       118.88999938964844
142.0       62.939998626708984
143.0       9.989999771118164
149.0       21.979999542236328
150.0       146.8699951171875
151.0       22.979999542236328
152.0       15.989999771118164
153.0       3.0
154.0       20.979999542236328
155.0       212.80999755859375
156.0       153.86000061035156
157.0       999.0
158.0       192.8300018310547
159.0       18.979999542236328
161.0       20.979999542236328
167.0       129.8800048828125
168.0       15.989999771118164
169.0       27.969999313354492
170.0       19.979999542236328
187.0       131.8800048828125
188.0       14.989999771118164

SMILES: CCC(CC)COC(C)=O
NUM PEAKS: 25
15.0        31.969999313354492
27.0        92.91999816894531
29.0        104.91000366210938
31.0        10.989999771118164
39.0        55.95000076293945
41.0        133.8800048828125
42.0        83.91999816894531
43.0        999.0
44.0        25.979999542236328
53.0        12.989999771118164
54.0        9.989999771118164
55.0        183.8300018310547
56.0        112.9000015258789
57.0        14.989999771118164
61.0        20.979999542236328
69.0        178.83999633789062
70.0        46.959999084472656
71.0        45.959999084472656
72.0        12.989999771118164
73.0        104.91000366210938
74.0        101.91000366210938
75.0        13.989999771118164
84.0        283.739990234375
85.0        24.979999542236328
86.0        31.969999313354492

SMILES: CCCCCC(O[Si](C)(C)C)C(CCCC(O[Si](C)(C)C)C(CCCCCC(=O)OC)O[Si](C)(C)C)O[Si](C)(C)C
NUM PEAKS: 151
73.0        15.989999771118164
75.0        35.970001220703125
81.0        5.0
84.0        5.0
85.0        9.989999771118164
101.0       5.989999771118164
103.0       10.989999771118164
113.0       7.989999771118164
117.0       6.989999771118164
119.0       4.0
127.0       7.989999771118164
129.0       87.91999816894531
130.0       13.989999771118164
131.0       5.0
133.0       10.989999771118164
137.0       4.0
140.0       4.0
141.0       4.0
142.0       64.94000244140625
143.0       12.989999771118164
144.0       5.0
146.0       7.989999771118164
147.0       12.989999771118164
149.0       27.969999313354492
155.0       8.989999771118164
156.0       18.979999542236328
157.0       25.979999542236328
158.0       5.989999771118164
159.0       36.970001220703125
160.0       5.0
163.0       5.0
167.0       5.0
169.0       5.0
170.0       5.0
171.0       5.0
172.0       193.8300018310547
173.0       411.6300048828125
174.0       69.94000244140625
175.0       27.969999313354492
176.0       5.989999771118164
185.0       6.989999771118164
186.0       5.0
191.0       273.75
192.0       46.959999084472656
193.0       25.979999542236328
195.0       5.0
199.0       16.979999542236328
201.0       7.989999771118164
202.0       5.0
203.0       5.0
208.0       9.989999771118164
209.0       5.0
212.0       11.989999771118164
213.0       38.959999084472656
214.0       8.989999771118164
215.0       31.969999313354492
216.0       9.989999771118164
217.0       20.979999542236328
218.0       5.0
225.0       15.989999771118164
229.0       5.0
230.0       211.80999755859375
231.0       676.3900146484375
232.0       128.8800048828125
233.0       35.970001220703125
234.0       5.0
238.0       4.0
239.0       287.739990234375
240.0       56.95000076293945
241.0       28.969999313354492
242.0       5.989999771118164
243.0       12.989999771118164
244.0       15.989999771118164
245.0       41.959999084472656
246.0       11.989999771118164
247.0       28.969999313354492
248.0       5.989999771118164
257.0       28.969999313354492
258.0       5.989999771118164
259.0       10.989999771118164
261.0       5.989999771118164
265.0       34.970001220703125
266.0       10.989999771118164
267.0       7.989999771118164
269.0       5.989999771118164
270.0       9.989999771118164
271.0       11.989999771118164
272.0       5.989999771118164
273.0       7.989999771118164
274.0       5.989999771118164
275.0       7.989999771118164
283.0       14.989999771118164
284.0       5.0
289.0       8.989999771118164
290.0       5.989999771118164
291.0       21.979999542236328
292.0       5.989999771118164
296.0       14.989999771118164
297.0       172.83999633789062
298.0       40.959999084472656
299.0       20.979999542236328
300.0       5.0
304.0       364.6700134277344
305.0       117.88999938964844
306.0       38.959999084472656
307.0       7.989999771118164
315.0       21.979999542236328
328.0       33.970001220703125
329.0       605.4500122070312
330.0       187.8300018310547
331.0       87.91999816894531
332.0       21.979999542236328
333.0       7.989999771118164
341.0       5.0
343.0       3.0
345.0       6.989999771118164
346.0       5.0
347.0       6.989999771118164
373.0       5.0
381.0       58.95000076293945
382.0       17.979999542236328
383.0       5.989999771118164
386.0       30.969999313354492
387.0       999.0
388.0       305.7200012207031
389.0       122.88999938964844
390.0       25.979999542236328
391.0       5.0
418.0       149.86000061035156
419.0       99.91000366210938
420.0       40.959999084472656
421.0       14.989999771118164
439.0       11.989999771118164
440.0       5.0
445.0       5.989999771118164
455.0       31.969999313354492
456.0       8.989999771118164
457.0       4.0
477.0       99.91000366210938
478.0       76.93000030517578
479.0       25.979999542236328
480.0       14.989999771118164
488.0       3.0
516.0       6.989999771118164
517.0       4.0
526.0       4.0
541.0       5.0
545.0       30.969999313354492
546.0       27.969999313354492
547.0       14.989999771118164
548.0       5.989999771118164

SMILES: O=C(CCCCCl)Nc1ccccc1F
NUM PEAKS: 35
27.0        5.0
29.0        9.989999771118164
39.0        5.0
41.0        4.0
53.0        3.0
55.0        63.939998626708984
57.0        5.989999771118164
63.0        6.989999771118164
64.0        4.0
65.0        2.0
75.0        5.0
77.0        2.0
82.0        4.0
83.0        28.969999313354492
84.0        9.989999771118164
90.0        5.989999771118164
91.0        33.970001220703125
92.0        2.0
93.0        11.989999771118164
95.0        4.0
109.0       5.0
110.0       17.979999542236328
111.0       999.0
112.0       64.94000244140625
119.0       12.989999771118164
121.0       5.0
124.0       2.0
137.0       3.0
138.0       14.989999771118164
166.0       2.0
194.0       14.989999771118164
229.0       77.93000030517578
230.0       9.989999771118164
231.0       25.979999542236328
232.0       3.0

SMILES: CC1CCC23C(C)CCC(CC12)C3(C)C
NUM PEAKS: 106
26.0        19.979999542236328
27.0        431.6099853515625
29.0        701.3699951171875
30.0        13.989999771118164
38.0        5.989999771118164
39.0        540.510009765625
40.0        100.91000366210938
41.0        169.85000610351562
42.0        374.6600036621094
43.0        298.7300109863281
44.0        9.989999771118164
50.0        14.989999771118164
51.0        87.91999816894531
52.0        55.95000076293945
53.0        594.4600219726562
54.0        105.9000015258789
55.0        999.0
56.0        84.91999816894531
57.0        58.95000076293945
63.0        24.979999542236328
64.0        9.989999771118164
65.0        261.760009765625
66.0        97.91000366210938
67.0        792.2899780273438
68.0        122.88999938964844
69.0        380.6600036621094
70.0        22.979999542236328
71.0        6.989999771118164
77.0        658.4099731445312
78.0        146.8699951171875
79.0        876.2100219726562
80.0        138.8699951171875
81.0        655.4099731445312
82.0        270.760009765625
83.0        64.94000244140625
84.0        5.989999771118164
89.0        12.989999771118164
90.0        5.989999771118164
91.0        865.219970703125
92.0        141.8699951171875
93.0        747.3300170898438
94.0        143.8699951171875
95.0        395.6400146484375
96.0        51.95000076293945
97.0        18.979999542236328
102.0       7.989999771118164
103.0       59.95000076293945
104.0       32.970001220703125
105.0       386.6499938964844
106.0       80.93000030517578
107.0       609.4500122070312
108.0       152.86000061035156
109.0       133.8800048828125
110.0       50.95000076293945
111.0       8.989999771118164
115.0       62.939998626708984
116.0       28.969999313354492
117.0       75.93000030517578
118.0       14.989999771118164
119.0       145.8699951171875
120.0       38.959999084472656
121.0       371.6700134277344
122.0       138.8699951171875
123.0       88.91999816894531
124.0       12.989999771118164
127.0       8.989999771118164
128.0       21.979999542236328
129.0       24.979999542236328
130.0       9.989999771118164
131.0       34.970001220703125
132.0       8.989999771118164
133.0       61.939998626708984
134.0       17.979999542236328
135.0       136.8800048828125
136.0       28.969999313354492
137.0       11.989999771118164
145.0       13.989999771118164
146.0       5.989999771118164
147.0       30.969999313354492
148.0       10.989999771118164
149.0       60.939998626708984
150.0       23.979999542236328
151.0       7.989999771118164
152.0       2.0
159.0       2.0
160.0       2.0
161.0       24.979999542236328
162.0       10.989999771118164
163.0       96.91000366210938
164.0       21.979999542236328
165.0       5.989999771118164
175.0       3.0
176.0       2.0
177.0       10.989999771118164
178.0       3.0
179.0       2.0
189.0       9.989999771118164
190.0       2.0
191.0       100.91000366210938
192.0       14.989999771118164
193.0       2.0
204.0       15.989999771118164
205.0       6.989999771118164
206.0       42.959999084472656
207.0       7.989999771118164
208.0       1.0

SMILES: O=P(c1cccs1)(c1cccs1)c1cccs1
NUM PEAKS: 107
26.0        4.0
27.0        5.989999771118164
38.0        37.970001220703125
39.0        225.8000030517578
40.0        8.989999771118164
45.0        99.91000366210938
47.0        87.91999816894531
50.0        11.989999771118164
51.0        16.979999542236328
55.0        15.989999771118164
57.0        50.95000076293945
58.0        29.969999313354492
59.0        4.0
63.0        109.9000015258789
64.0        4.0
65.0        7.989999771118164
69.0        41.959999084472656
70.0        12.989999771118164
71.0        22.979999542236328
73.0        2.0
74.0        4.0
75.0        5.0
76.0        5.0
77.0        21.979999542236328
78.0        6.989999771118164
80.0        5.0
81.0        29.969999313354492
82.0        40.959999084472656
83.0        19.979999542236328
84.0        14.989999771118164
85.0        3.0
86.0        10.989999771118164
87.0        9.989999771118164
88.0        21.979999542236328
89.0        21.979999542236328
90.0        16.979999542236328
93.0        7.989999771118164
94.0        4.0
95.0        10.989999771118164
96.0        9.989999771118164
97.0        7.989999771118164
99.0        4.0
101.0       5.0
102.0       29.969999313354492
104.0       4.0
106.0       2.0
107.0       8.989999771118164
108.0       28.969999313354492
109.0       7.989999771118164
111.0       8.989999771118164
113.0       5.0
114.0       35.970001220703125
115.0       11.989999771118164
116.0       3.0
119.0       2.0
121.0       107.9000015258789
122.0       100.91000366210938
123.0       13.989999771118164
124.0       5.0
126.0       3.0
127.0       14.989999771118164
129.0       4.0
130.0       10.989999771118164
131.0       5.0
132.0       5.0
134.0       105.9000015258789
135.0       10.989999771118164
136.0       5.989999771118164
139.0       16.979999542236328
140.0       7.989999771118164
141.0       4.0
152.0       62.939998626708984
153.0       46.959999084472656
154.0       5.989999771118164
155.0       5.989999771118164
158.0       2.0
163.0       4.0
164.0       5.989999771118164
166.0       203.82000732421875
167.0       23.979999542236328
168.0       20.979999542236328
169.0       2.0
171.0       9.989999771118164
184.0       4.0
190.0       2.0
195.0       28.969999313354492
197.0       999.0
198.0       103.91000366210938
199.0       97.91000366210938
200.0       8.989999771118164
201.0       3.0
203.0       3.0
211.0       21.979999542236328
213.0       101.91000366210938
214.0       12.989999771118164
215.0       10.989999771118164
216.0       6.989999771118164
245.0       5.989999771118164
246.0       3.0
247.0       5.989999771118164
248.0       3.0
263.0       6.989999771118164
296.0       585.469970703125
297.0       97.91000366210938
298.0       90.91999816894531
299.0       12.989999771118164
300.0       5.989999771118164

SMILES: CC(=O)c1ccc(OC(=O)c2ccc(Cl)cc2)cc1
NUM PEAKS: 96
34.0        3.0
35.0        14.989999771118164
36.0        61.939998626708984
37.0        20.979999542236328
38.0        88.91999816894531
39.0        60.939998626708984
40.0        45.959999084472656
41.0        5.0
43.0        193.8300018310547
44.0        27.969999313354492
46.0        0.5
47.0        1.0
49.0        10.989999771118164
50.0        164.85000610351562
51.0        71.94000244140625
52.0        21.979999542236328
53.0        22.979999542236328
55.0        4.0
56.0        5.0
57.0        3.0
60.0        4.0
61.0        17.979999542236328
62.0        28.969999313354492
63.0        93.91999816894531
64.0        74.93000030517578
65.0        30.969999313354492
66.0        9.989999771118164
67.0        0.5
68.0        0.5
70.0        5.989999771118164
71.0        2.0
72.0        1.0
73.0        11.989999771118164
74.0        67.94000244140625
75.0        247.77999877929688
76.0        81.93000030517578
77.0        58.95000076293945
78.0        13.989999771118164
79.0        20.979999542236328
80.0        2.0
81.0        1.0
82.0        1.0
84.0        4.0
85.0        24.979999542236328
86.0        4.0
87.0        7.989999771118164
88.0        0.5
89.0        2.0
90.0        1.0
91.0        10.989999771118164
92.0        65.94000244140625
93.0        10.989999771118164
94.0        2.0
98.0        1.0
99.0        0.5
101.0       0.5
103.0       1.0
104.0       21.979999542236328
105.0       5.989999771118164
107.0       14.989999771118164
108.0       3.0
109.0       4.0
111.0       350.67999267578125
112.0       32.970001220703125
113.0       97.91000366210938
114.0       6.989999771118164
115.0       0.5
118.0       0.5
120.0       20.979999542236328
121.0       17.979999542236328
122.0       1.0
126.0       0.5
127.0       0.5
128.0       0.5
130.0       0.5
131.0       0.5
133.0       0.5
134.0       1.0
135.0       4.0
136.0       11.989999771118164
139.0       999.0
141.0       374.6600036621094
142.0       18.979999542236328
143.0       1.0
149.0       0.5
151.0       0.5
156.0       0.5
158.0       0.5
168.0       0.5
173.0       0.5
175.0       0.5
271.0       0.5
272.0       1.0
274.0       22.979999542236328
275.0       4.0
276.0       5.989999771118164

SMILES: C=C[Si](C)(OCCCCCCCC)O[Si](C)(C=C)OC(C)CCC
NUM PEAKS: 145
26.0        2.0
27.0        9.989999771118164
29.0        44.959999084472656
38.0        1.0
39.0        5.989999771118164
40.0        4.0
41.0        65.94000244140625
42.0        18.979999542236328
43.0        191.8300018310547
44.0        2.0
45.0        2.0
53.0        2.0
54.0        5.989999771118164
55.0        62.939998626708984
56.0        12.989999771118164
57.0        161.85000610351562
58.0        5.0
59.0        3.0
65.0        3.0
66.0        1.0
67.0        5.0
68.0        4.0
69.0        35.970001220703125
70.0        26.979999542236328
71.0        124.88999938964844
72.0        5.989999771118164
75.0        10.989999771118164
78.0        2.0
81.0        2.0
84.0        9.989999771118164
86.0        2.0
93.0        2.0
100.0       8.989999771118164
103.0       26.979999542236328
104.0       3.0
105.0       17.979999542236328
106.0       2.0
107.0       3.0
110.0       3.0
111.0       1.0
112.0       1.0
114.0       1.0
115.0       7.989999771118164
118.0       2.0
119.0       115.9000015258789
120.0       13.989999771118164
121.0       40.959999084472656
122.0       4.0
123.0       1.0
128.0       2.0
129.0       4.0
130.0       3.0
131.0       34.970001220703125
132.0       5.989999771118164
133.0       12.989999771118164
134.0       2.0
135.0       90.91999816894531
136.0       11.989999771118164
137.0       21.979999542236328
138.0       4.0
139.0       1.0
141.0       5.0
143.0       6.989999771118164
144.0       3.0
145.0       128.8800048828125
146.0       21.979999542236328
147.0       90.91999816894531
148.0       11.989999771118164
149.0       15.989999771118164
150.0       2.0
151.0       2.0
155.0       3.0
156.0       1.0
157.0       51.95000076293945
158.0       11.989999771118164
159.0       18.979999542236328
160.0       4.0
161.0       8.989999771118164
162.0       2.0
163.0       312.7200012207031
164.0       39.959999084472656
165.0       23.979999542236328
166.0       2.0
171.0       6.989999771118164
172.0       6.989999771118164
173.0       550.5
174.0       90.91999816894531
175.0       648.4199829101562
176.0       94.91000366210938
177.0       50.95000076293945
178.0       3.0
185.0       1.0
186.0       1.0
187.0       9.989999771118164
188.0       3.0
189.0       7.989999771118164
190.0       18.979999542236328
191.0       16.979999542236328
192.0       4.0
193.0       1.0
199.0       2.0
200.0       1.0
201.0       23.979999542236328
202.0       5.989999771118164
203.0       32.970001220703125
204.0       6.989999771118164
205.0       4.0
213.0       2.0
214.0       1.0
217.0       3.0
218.0       2.0
219.0       1.0
227.0       2.0
228.0       1.0
232.0       1.0
233.0       1.0
243.0       67.94000244140625
244.0       14.989999771118164
245.0       8.989999771118164
246.0       2.0
247.0       15.989999771118164
248.0       2.0
274.0       1.0
275.0       51.95000076293945
276.0       10.989999771118164
277.0       4.0
283.0       2.0
284.0       1.0
285.0       999.0
286.0       239.77999877929688
287.0       305.7200012207031
288.0       61.939998626708984
289.0       21.979999542236328
290.0       3.0
301.0       3.0
302.0       7.989999771118164
303.0       2.0
329.0       4.0
330.0       1.0
345.0       24.979999542236328
346.0       5.989999771118164
347.0       1.0
357.0       36.970001220703125
358.0       9.989999771118164
359.0       3.0

SMILES: N#Cc1c(F)c(F)c(Br)c(F)c1F
NUM PEAKS: 68
26.0        2.0
31.0        235.7899932861328
32.0        3.0
36.0        6.989999771118164
38.0        4.0
48.0        3.0
50.0        3.0
55.0        33.970001220703125
60.0        8.989999771118164
62.0        11.989999771118164
67.0        4.0
69.0        20.979999542236328
72.0        0.5
74.0        61.939998626708984
75.0        0.5
79.0        92.91999816894531
80.0        0.5
81.0        37.970001220703125
86.0        88.91999816894531
87.0        5.0
91.0        7.989999771118164
93.0        113.9000015258789
94.0        3.0
98.0        59.95000076293945
100.0       68.94000244140625
101.0       3.0
103.0       4.0
105.0       147.8699951171875
106.0       6.989999771118164
110.0       18.979999542236328
112.0       6.989999771118164
117.0       51.95000076293945
118.0       1.0
122.0       5.0
124.0       792.2899780273438
125.0       35.970001220703125
126.0       52.95000076293945
127.0       60.939998626708984
128.0       20.979999542236328
129.0       17.979999542236328
130.0       0.5
131.0       5.989999771118164
134.0       4.0
136.0       10.989999771118164
141.0       6.989999771118164
142.0       0.5
143.0       6.989999771118164
148.0       21.979999542236328
153.0       10.989999771118164
155.0       43.959999084472656
156.0       1.0
160.0       2.0
162.0       5.989999771118164
174.0       390.6499938964844
175.0       24.979999542236328
177.0       0.5
179.0       0.5
184.0       6.989999771118164
186.0       6.989999771118164
222.0       8.989999771118164
224.0       9.989999771118164
234.0       2.0
236.0       1.0
253.0       999.0
254.0       21.979999542236328
255.0       999.0
256.0       51.95000076293945
257.0       1.0

